1118793
1,48,37,74,70,33,9,57,47,95,32,60,31,62,93,49,56,10,77,30,96,21,20,18,69,41,75,6,63,13,68,99,36,50,88,83,15,16,58,82,67,61,76,38,87,45,86,81,4,66,7,14,39,92,84,22,73,52,65,54,98,71,34,23,11,28,46,43,24,59,90,19,17,26,12,94,40,29,79,51,78,25,80,72,55,44,91,42,35,97,2,3,5,64,27,53,8,89,85,1